NAME : XML50_2173_05
COMMENT : Generated as the XML100 dataset from the CVRPLIB
TYPE : CVRP
DIMENSION : 51
EDGE_WEIGHT_TYPE : EUC_2D
CAPACITY : 141
NODE_COORD_SECTION
1    500  500 
2    266  683 
3    222  631 
4    82   206 
5    999  884 
6    287  852 
7    957  338 
8    672  282 
9    578  180 
10   670  434 
11   380  961 
12   401  700 
13   404  998 
14   831  394 
15   275  850 
16   460  136 
17   137  358 
18   97   730 
19   653  530 
20   645  251 
21   580  134 
22   557  25  
23   572  44  
24   405  291 
25   116  542 
26   477  447 
27   423  153 
28   701  561 
29   977  831 
30   304  577 
31   365  584 
32   871  511 
33   700  220 
34   358  389 
35   418  321 
36   481  218 
37   878  580 
38   162  828 
39   449  708 
40   954  624 
41   626  139 
42   955  348 
43   421  405 
44   0    305 
45   405  64  
46   201  2   
47   521  989 
48   839  899 
49   895  391 
50   0    988 
51   164  510 
DEMAND_SECTION
1    0   
2    6   
3    10  
4    79  
5    2   
6    1   
7    7   
8    6   
9    9   
10   7   
11   56  
12   6   
13   7   
14   3   
15   7   
16   4   
17   7   
18   59  
19   3   
20   87  
21   6   
22   6   
23   5   
24   2   
25   4   
26   7   
27   9   
28   10  
29   6   
30   6   
31   9   
32   2   
33   8   
34   73  
35   8   
36   8   
37   8   
38   5   
39   6   
40   1   
41   8   
42   5   
43   96  
44   9   
45   3   
46   50  
47   5   
48   7   
49   3   
50   7   
51   4   
DEPOT_SECTION
1
-1
EOF
